g3 0 1 0	# problem d5n8R2R6d001d05
 8 7 1 0 2	# vars, constraints, objectives, ranges, eqns
 4 1	# nonlinear constraints, objectives
 0 0	# network constraints: nonlinear, linear
 7 7 7	# nonlinear vars in constraints, objectives, both
 0 0 0 1	# linear network variables; functions; arith, flags
 0 0 0 0 0	# discrete variables: binary, integer, nonlinear (b,c,o)
 48 8	# nonzeros in Jacobian, gradients
 0 0	# max name lengths: constraints, variables
 0 0 0 0 0	# common exprs: b,c,o,c1,o1
b
0 0.31 2.75
0 0.33 2.04
0 0.91 2.78
0 0.75 2.36
0 0.75 2.05
0 0.6 2.79
0 0.05 2.56
0 0.88 2.07
r
2 61.942
2 137.567
2 115.375
2 330.669
4 40
4 8.574
2 65.077
C0
o2
o2
n8.22
v4
v5
C1
o54
5
o2
o2
n7.16
v4
v5
o2
o2
o2
n7.34
v0
v0
v1
o2
o2
o2
n2.44
v0
v0
v3
o2
o2
o2
n2.43
v0
v3
v5
o2
o2
o2
n4.29
v2
v2
v3
C2
o54
6
o2
o2
n3.06
v4
v5
o2
o2
o2
n1.31
v0
v0
v1
o16
o2
o2
o2
n7.31
v0
v0
v3
o2
o2
o2
n1.43
v0
v3
v5
o2
o2
o2
n9.39
v2
v2
v3
o2
o2
o2
o2
n5.99
v5
v6
v6
v6
C3
o54
13
o2
o2
n6
v4
v5
o2
o2
o2
n0.38
v0
v0
v1
o2
o2
o2
n7.84
v0
v0
v3
o2
o2
o2
n3.31
v0
v3
v5
o2
o2
o2
n3.72
v2
v2
v3
o16
o2
o2
o2
o2
n7.57
v5
v6
v6
v6
o2
o2
o2
o2
o2
n9.03
v0
v4
v4
v4
v4
o2
o2
o2
o2
o2
n5.26
v1
v1
v1
v2
v3
o2
o2
o2
o2
o2
n2.22
v1
v1
v1
v6
v6
o2
o2
o2
o2
o2
n8.83
v1
v3
v3
v5
v5
o2
o2
o2
o2
o2
n4.67
v1
v3
v3
v5
v6
o2
o2
o2
o2
o2
n3.09
v2
v4
v4
v4
v5
o16
o2
o2
o2
o2
o2
n0.67
v3
v4
v4
v5
v5
C4
n0
C5
n0
C6
n0
O0 0
o54
13
o2
o2
n0.76
v4
v5
o2
o2
o2
n0.84
v0
v0
v1
o2
o2
o2
n6.94
v0
v0
v3
o2
o2
o2
n9.71
v0
v3
v5
o2
o2
o2
n2.76
v2
v2
v3
o2
o2
o2
o2
n1.92
v5
v6
v6
v6
o2
o2
o2
o2
o2
n0.24
v0
v4
v4
v4
v4
o16
o2
o2
o2
o2
o2
n3.77
v1
v1
v1
v2
v3
o2
o2
o2
o2
o2
n7.03
v1
v1
v1
v6
v6
o2
o2
o2
o2
o2
n3.89
v1
v3
v3
v5
v5
o2
o2
o2
o2
o2
n0.19
v1
v3
v3
v5
v6
o2
o2
o2
o2
o2
n0.26
v2
v4
v4
v4
v5
o2
o2
o2
o2
o2
n1.76
v3
v4
v4
v5
v5
k7
6
12
18
24
30
36
43
J0 8
0 5.91
1 7.23
2 0.27
3 6.12
4 -2.95
5 3.49
6 6.76
7 2.85
J1 8
0 6.83
1 5.15
2 7.65
3 9.36
4 1.01
5 7.55
6 0.36
7 -0.73
J2 8
0 0.17
1 3.46
2 6.04
3 7.39
4 0.18
5 4.26
6 7.2
7 6.23
J3 8
0 8.38
1 7.09
2 6.13
3 7.3
4 0.74
5 9.28
6 6.24
7 4.14
J4 4
2 9.57
3 3.17
4 3.63
6 9.45
J5 4
0 -2.68
1 9.09
5 0.06
6 1.38
J6 8
0 1.75
1 7.61
2 5.47
3 7.16
4 6.29
5 6.45
6 7.39
7 1.88
G0 8
0 5.95
1 4.73
2 0.32
3 6.44
4 8.73
5 1.59
6 3.48
7 9.77
